NAME : a280
COMMENT : Algorithm MCMF_knn
COMMENT : Length 3117 
COMMENT : Elapsed time 0.0236165 seconds
TYPE : TOUR
DIMENSION : 280
TOUR_SECTION
16
271
272
273
274
275
276
277
4
5
6
7
8
9
10
11
12
13
14
15
22
25
23
24
17
18
133
19
20
131
132
134
270
268
269
135
136
137
267
266
140
141
142
143
146
147
148
139
138
149
150
179
180
176
181
182
183
184
185
186
187
188
189
190
191
192
193
194
195
196
201
198
197
144
145
199
200
202
203
204
205
206
207
208
209
210
211
212
213
216
217
218
215
214
219
222
220
221
223
224
225
226
227
228
229
230
231
246
233
234
235
236
232
237
238
239
240
241
244
245
247
250
251
278
279
3
1
280
2
242
243
248
249
252
253
254
257
256
255
258
259
260
261
262
263
264
265
157
158
159
160
177
178
151
152
119
120
121
122
123
124
30
125
126
127
128
129
21
130
154
155
153
156
26
27
28
29
31
32
33
34
35
36
37
38
39
40
41
42
43
60
61
62
118
68
69
50
51
48
49
52
53
46
47
54
55
45
56
44
57
58
59
63
64
65
66
67
70
71
72
73
74
75
76
77
78
79
80
81
82
83
84
85
86
116
115
117
87
113
88
112
111
114
108
110
89
109
90
91
92
93
98
97
96
95
94
99
101
100
169
170
171
172
102
103
104
105
106
107
173
174
161
175
162
163
164
165
166
167
168
EOF
